p cnf 90 505
6 0
-1 0
12 0
-7 0
18 0
-13 0
24 0
-19 0
30 0
-25 0
36 0
-31 0
42 0
-37 0
48 0
-43 0
54 0
-49 0
60 0
-55 0
66 0
-61 0
72 0
-67 0
78 0
-73 0
84 0
-79 0
90 0
-85 0
-1 2 0
-2 3 0
-3 4 0
-4 5 0
-5 6 0
-7 8 0
-8 9 0
-9 10 0
-10 11 0
-11 12 0
-13 14 0
-14 15 0
-15 16 0
-16 17 0
-17 18 0
-19 20 0
-20 21 0
-21 22 0
-22 23 0
-23 24 0
-25 26 0
-26 27 0
-27 28 0
-28 29 0
-29 30 0
-31 32 0
-32 33 0
-33 34 0
-34 35 0
-35 36 0
-37 38 0
-38 39 0
-39 40 0
-40 41 0
-41 42 0
-43 44 0
-44 45 0
-45 46 0
-46 47 0
-47 48 0
-49 50 0
-50 51 0
-51 52 0
-52 53 0
-53 54 0
-55 56 0
-56 57 0
-57 58 0
-58 59 0
-59 60 0
-61 62 0
-62 63 0
-63 64 0
-64 65 0
-65 66 0
-67 68 0
-68 69 0
-69 70 0
-70 71 0
-71 72 0
-73 74 0
-74 75 0
-75 76 0
-76 77 0
-77 78 0
-79 80 0
-80 81 0
-81 82 0
-82 83 0
-83 84 0
-85 86 0
-86 87 0
-87 88 0
-88 89 0
-89 90 0
-7 -13 37 0
-7 -37 13 0
-13 -37 7 0
-8 -14 38 0
-8 -38 14 0
-14 -38 8 0
-9 -15 39 0
-9 -39 15 0
-15 -39 9 0
-10 -16 40 0
-10 -40 16 0
-16 -40 10 0
-11 -17 41 0
-11 -41 17 0
-17 -41 11 0
-12 -18 42 0
-12 -42 18 0
-18 -42 12 0
-7 -19 43 0
-7 -43 19 0
-19 -43 7 0
-8 -20 44 0
-8 -44 20 0
-20 -44 8 0
-9 -21 45 0
-9 -45 21 0
-21 -45 9 0
-10 -22 46 0
-10 -46 22 0
-22 -46 10 0
-11 -23 47 0
-11 -47 23 0
-23 -47 11 0
-12 -24 48 0
-12 -48 24 0
-24 -48 12 0
-7 -25 49 0
-7 -49 25 0
-25 -49 7 0
-8 -26 50 0
-8 -50 26 0
-26 -50 8 0
-9 -27 51 0
-9 -51 27 0
-27 -51 9 0
-10 -28 52 0
-10 -52 28 0
-28 -52 10 0
-11 -29 53 0
-11 -53 29 0
-29 -53 11 0
-12 -30 54 0
-12 -54 30 0
-30 -54 12 0
-13 -19 61 0
-13 -61 19 0
-19 -61 13 0
-14 -20 62 0
-14 -62 20 0
-20 -62 14 0
-15 -21 63 0
-15 -63 21 0
-21 -63 15 0
-16 -22 64 0
-16 -64 22 0
-22 -64 16 0
-17 -23 65 0
-17 -65 23 0
-23 -65 17 0
-18 -24 66 0
-18 -66 24 0
-24 -66 18 0
-13 -25 67 0
-13 -67 25 0
-25 -67 13 0
-14 -26 68 0
-14 -68 26 0
-26 -68 14 0
-15 -27 69 0
-15 -69 27 0
-27 -69 15 0
-16 -28 70 0
-16 -70 28 0
-28 -70 16 0
-17 -29 71 0
-17 -71 29 0
-29 -71 17 0
-18 -30 72 0
-18 -72 30 0
-30 -72 18 0
-19 -25 79 0
-19 -79 25 0
-25 -79 19 0
-20 -26 80 0
-20 -80 26 0
-26 -80 20 0
-21 -27 81 0
-21 -81 27 0
-27 -81 21 0
-22 -28 82 0
-22 -82 28 0
-28 -82 22 0
-23 -29 83 0
-23 -83 29 0
-29 -83 23 0
-24 -30 84 0
-24 -84 30 0
-30 -84 24 0
-37 -43 61 0
-37 -61 43 0
-43 -61 37 0
-38 -44 62 0
-38 -62 44 0
-44 -62 38 0
-39 -45 63 0
-39 -63 45 0
-45 -63 39 0
-40 -46 64 0
-40 -64 46 0
-46 -64 40 0
-41 -47 65 0
-41 -65 47 0
-47 -65 41 0
-42 -48 66 0
-42 -66 48 0
-48 -66 42 0
-37 -49 67 0
-37 -67 49 0
-49 -67 37 0
-38 -50 68 0
-38 -68 50 0
-50 -68 38 0
-39 -51 69 0
-39 -69 51 0
-51 -69 39 0
-40 -52 70 0
-40 -70 52 0
-52 -70 40 0
-41 -53 71 0
-41 -71 53 0
-53 -71 41 0
-42 -54 72 0
-42 -72 54 0
-54 -72 42 0
-43 -49 79 0
-43 -79 49 0
-49 -79 43 0
-44 -50 80 0
-44 -80 50 0
-50 -80 44 0
-45 -51 81 0
-45 -81 51 0
-51 -81 45 0
-46 -52 82 0
-46 -82 52 0
-52 -82 46 0
-47 -53 83 0
-47 -83 53 0
-53 -83 47 0
-48 -54 84 0
-48 -84 54 0
-54 -84 48 0
-61 -67 79 0
-61 -79 67 0
-67 -79 61 0
-62 -68 80 0
-62 -80 68 0
-68 -80 62 0
-63 -69 81 0
-63 -81 69 0
-69 -81 63 0
-64 -70 82 0
-64 -82 70 0
-70 -82 64 0
-65 -71 83 0
-65 -83 71 0
-71 -83 65 0
-66 -72 84 0
-66 -84 72 0
-72 -84 66 0
-7 1 0
-7 31 0
-8 2 0
-8 32 0
-9 3 0
-9 33 0
-10 4 0
-10 34 0
-11 5 0
-11 35 0
-12 6 0
-12 36 0
-13 1 0
-13 55 0
-14 2 0
-14 56 0
-15 3 0
-15 57 0
-16 4 0
-16 58 0
-17 5 0
-17 59 0
-18 6 0
-18 60 0
-19 1 0
-19 73 0
-20 2 0
-20 74 0
-21 3 0
-21 75 0
-22 4 0
-22 76 0
-23 5 0
-23 77 0
-24 6 0
-24 78 0
-25 1 0
-25 85 0
-26 2 0
-26 86 0
-27 3 0
-27 87 0
-28 4 0
-28 88 0
-29 5 0
-29 89 0
-30 6 0
-30 90 0
-37 31 0
-37 55 0
-38 32 0
-38 56 0
-39 33 0
-39 57 0
-40 34 0
-40 58 0
-41 35 0
-41 59 0
-42 36 0
-42 60 0
-43 31 0
-43 73 0
-44 32 0
-44 74 0
-45 33 0
-45 75 0
-46 34 0
-46 76 0
-47 35 0
-47 77 0
-48 36 0
-48 78 0
-49 31 0
-49 85 0
-50 32 0
-50 86 0
-51 33 0
-51 87 0
-52 34 0
-52 88 0
-53 35 0
-53 89 0
-54 36 0
-54 90 0
-61 55 0
-61 73 0
-62 56 0
-62 74 0
-63 57 0
-63 75 0
-64 58 0
-64 76 0
-65 59 0
-65 77 0
-66 60 0
-66 78 0
-67 55 0
-67 85 0
-68 56 0
-68 86 0
-69 57 0
-69 87 0
-70 58 0
-70 88 0
-71 59 0
-71 89 0
-72 60 0
-72 90 0
-79 73 0
-79 85 0
-80 74 0
-80 86 0
-81 75 0
-81 87 0
-82 76 0
-82 88 0
-83 77 0
-83 89 0
-84 78 0
-84 90 0
-8 1 31 0
-9 2 32 0
-10 3 33 0
-11 4 34 0
-12 5 35 0
-14 1 55 0
-15 2 56 0
-16 3 57 0
-17 4 58 0
-18 5 59 0
-20 1 73 0
-21 2 74 0
-22 3 75 0
-23 4 76 0
-24 5 77 0
-26 1 85 0
-27 2 86 0
-28 3 87 0
-29 4 88 0
-30 5 89 0
-38 31 55 0
-39 32 56 0
-40 33 57 0
-41 34 58 0
-42 35 59 0
-44 31 73 0
-45 32 74 0
-46 33 75 0
-47 34 76 0
-48 35 77 0
-50 31 85 0
-51 32 86 0
-52 33 87 0
-53 34 88 0
-54 35 89 0
-62 55 73 0
-63 56 74 0
-64 57 75 0
-65 58 76 0
-66 59 77 0
-68 55 85 0
-69 56 86 0
-70 57 87 0
-71 58 88 0
-72 59 89 0
-80 73 85 0
-81 74 86 0
-82 75 87 0
-83 76 88 0
-84 77 89 0
-2 1 -32 8 0
-2 31 -32 8 0
-3 2 -33 9 0
-3 32 -33 9 0
-4 3 -34 10 0
-4 33 -34 10 0
-5 4 -35 11 0
-5 34 -35 11 0
-6 5 -36 12 0
-6 35 -36 12 0
-2 1 -56 14 0
-2 55 -56 14 0
-3 2 -57 15 0
-3 56 -57 15 0
-4 3 -58 16 0
-4 57 -58 16 0
-5 4 -59 17 0
-5 58 -59 17 0
-6 5 -60 18 0
-6 59 -60 18 0
-32 31 -74 44 0
-32 73 -74 44 0
-33 32 -75 45 0
-33 74 -75 45 0
-34 33 -76 46 0
-34 75 -76 46 0
-35 34 -77 47 0
-35 76 -77 47 0
-36 35 -78 48 0
-36 77 -78 48 0
-32 31 -56 38 0
-32 55 -56 38 0
-33 32 -57 39 0
-33 56 -57 39 0
-34 33 -58 40 0
-34 57 -58 40 0
-35 34 -59 41 0
-35 58 -59 41 0
-36 35 -60 42 0
-36 59 -60 42 0
-56 55 -86 68 0
-56 85 -86 68 0
-57 56 -87 69 0
-57 86 -87 69 0
-58 57 -88 70 0
-58 87 -88 70 0
-59 58 -89 71 0
-59 88 -89 71 0
-60 59 -90 72 0
-60 89 -90 72 0
